column=6;
row=6;
max=4;
left=[0, 3, 1, 1, 2, 4];
right=[1, 1, 0, 0, 0, 2];
top=[3, 0, 4, 0, 0, 1];
bottom=[0, 0, 1, 0, 1, 0];
Board=[|0,0,0,3,2,1|0,0,0,1,0,0|0,0,2,0,0,0|0,1,0,2,0,4|0,0,0,0,4,3|0,0,0,0,1,2|]